\ Model Routes
\ LP format - for model browsing. Use MPS format to capture full model detail.
Maximize
  2502.535169013755 x0 + 2907.012894166749 x1 + 2536.463853558342 x2
   + 2063.898627885423 x3 + 2063.898627885423 x4 + 2063.898627885423 x5
   + 1896.186365248035 x6 + 1896.186365248035 x7 + 1896.186365248035 x8
   + 323.4745153667197 x9 + 323.4745153667197 x10 + 323.4745153667197 x11
   + 1246.754905151055 x12 + 1246.754905151055 x13 + 1246.754905151055 x14
   + 1788.482008445429 x15 + 1788.482008445429 x16 + 1788.482008445429 x17
   + 630.2636878401449 x18 + 630.2636878401449 x19 + 630.2636878401449 x20
Subject To
 R00: x0 <= 1
 R01: x1 <= 1
 R02: x2 <= 1
 R03: x3 <= 1
 R04: x4 <= 1
 R05: x5 <= 1
 R06: x6 <= 1
 R07: x7 <= 1
 R08: x8 <= 1
 R09: x9 <= 1
 R010: x10 <= 1
 R011: x11 <= 1
 R012: x12 <= 1
 R013: x13 <= 1
 R014: x14 <= 1
 R015: x15 <= 1
 R016: x16 <= 1
 R017: x17 <= 1
 R018: x18 <= 1
 R019: x19 <= 1
 R020: x20 <= 1
 R1_0: x0 + x1 + x2 <= 1
 R1_1: x3 + x4 + x5 <= 1
 R1_2: x6 + x7 + x8 <= 1
 R1_3: x9 + x10 + x11 <= 1
 R1_4: x12 + x13 + x14 <= 1
 R1_5: x15 + x16 + x17 <= 1
 R1_6: x18 + x19 + x20 <= 1
 R2_0: 7 x0 + 7 x1 + 7 x2 <= 7
 R2_1: 10 x3 + 10 x4 + 10 x5 <= 10
 R2_2: 15 x6 + 15 x7 + 15 x8 <= 16
 R2_3: 4 x3 + 4 x4 + 4 x5 <= 4
 R2_4: <= 0
 R2_5: 5 x15 + 5 x16 + 5 x17 <= 5
 R2_6: 10 x9 + 10 x10 + 10 x11 <= 10
 R2_7: 6 x6 + 6 x7 + 6 x8 <= 6
 R2_8: 9 x18 + 9 x19 + 9 x20 <= 9
 R2_9: 12 x9 + 12 x10 + 12 x11 <= 12
 R2_10: 8 x18 + 8 x19 + 8 x20 <= 8
 R2_11: 15 x12 + 15 x13 + 15 x14 <= 15
 R2_12: <= 0
 R2_13: 8 x3 + 8 x4 + 8 x5 <= 8
 R2_14: <= 0
 R2_15: 11 x0 + 11 x1 + 11 x2 <= 11
 R2_16: 5 x15 + 5 x16 + 5 x17 <= 5
 R2_17: 11 x12 + 11 x13 + 11 x14 <= 11
 R2_18: 5 x3 + 5 x4 + 5 x5 <= 5
 R2_19: 11 x0 + 11 x3 + 11 x4 + 11 x5 <= 11
 R2_20: 8 x1 + 13 x6 + 13 x7 + 13 x8 <= 13
 R2_21: <= 0
 R2_22: 10 x6 + 10 x7 + 10 x8 <= 10
 R2_23: 14 x6 + 14 x7 + 14 x8 <= 14
 R2_24: 10 x15 + 10 x16 + 10 x17 <= 10
 R2_25: 13 x0 + 13 x1 + 13 x2 <= 13
 R2_26: 6 x12 + 6 x13 + 6 x14 <= 6
 R2_27: 5 x15 + 5 x16 + 5 x17 <= 5
 R2_28: <= 0
 R2_29: <= 0
 R2_30: <= 0
 R2_31: 6 x12 + 6 x13 + 6 x14 <= 6
 R2_32: 7 x15 + 7 x16 + 7 x17 <= 7
 R2_33: 12 x15 + 12 x16 + 12 x17 <= 12
 R2_34: 5 x0 + 5 x1 + 5 x2 <= 5
 R2_35: 13 x18 + 13 x19 + 13 x20 <= 13
 R2_36: 15 x12 + 15 x13 + 15 x14 <= 16
 R2_37: 5 x18 + 5 x19 + 5 x20 <= 5
 R2_38: <= 0
 R2_39: 15 x0 + 15 x1 + 15 x2 <= 17
 R2_40: 15 x6 + 15 x7 + 15 x8 <= 15
 R2_41: 5 x0 + 5 x1 + 5 x2 <= 5
 R2_42: 4 x6 + 4 x7 + 4 x8 <= 4
 R2_43: <= 0
 R2_44: <= 0
 R2_45: <= 0
 R2_46: 9 x3 + 9 x4 + 9 x5 <= 9
 R2_47: 7 x1 <= 7
 R2_48: 4 x15 + 4 x16 + 4 x17 <= 4
 R2_49: <= 0
 R2_50: <= 0
 R2_51: 11 x3 + 11 x4 + 11 x5 <= 11
 R2_52: 10 x12 + 10 x13 + 10 x14 <= 10
 R2_53: 13 x15 + 13 x16 + 13 x17 <= 13
 R2_54: 9 x9 + 9 x10 + 9 x11 <= 9
 R2_55: 8 x12 + 8 x13 + 8 x14 <= 8
 R2_56: 6 x1 + 6 x2 + 6 x6 + 6 x7 + 6 x8 <= 6
 R2_57: <= 0
 R2_58: 15 x15 + 15 x16 + 15 x17 <= 15
 R2_59: 10 x3 + 10 x4 + 10 x5 <= 10
 R2_60: 13 x9 + 13 x10 + 13 x11 <= 13
 R2_61: 9 x12 + 9 x13 + 9 x14 <= 9
 R2_62: 10 x18 + 10 x19 + 10 x20 <= 10
 R2_63: <= 0
 R2_64: <= 0
 R2_65: 5 x6 + 5 x7 + 5 x8 <= 5
 R2_66: 7 x18 + 7 x19 + 7 x20 <= 7
 R2_67: 3 x3 + 3 x4 + 3 x5 <= 3
 R2_68: 6 x18 + 6 x19 + 6 x20 <= 6
 R2_69: 7 x0 + 7 x1 + 7 x2 <= 7
 R2_70: 11 x3 + 11 x4 + 11 x5 <= 11
 R2_71: 7 x18 + 7 x19 + 7 x20 <= 7
 R2_72: <= 0
 R2_73: 11 x0 + 11 x1 + 11 x2 <= 11
 R2_74: 5 x15 + 5 x16 + 5 x17 <= 5
 R2_75: <= 0
 R2_76: <= 0
 R2_77: 7 x0 + 7 x1 + 7 x2 <= 7
Bounds
End
